00100110010000000011001100000100000000000011001000,00000000000000000000000000000000000000000000000000,00000001000100000000000010000000000000000000000000,00000000000000000000000000000000000000000000000000,00000000000010000100100000101011000100000100000000,00000000000000000000000000000000000000000000000000,00000000000000000000000000000000000000000000000000,00001000101000000000000000000000001000000000000001,00000000000001111000010001000000100010101000100100,11010000000000000000000000010000010001010000010010,[0, 0, 9, 0, 0, 8, 9, 0, 0, 8, 0, 0, 0, 0, 0, 0, 0, 0, 8, 8, 0, 0, 8, 9, 0, 0, 0, 0, 0, 9, 0, 0, 0, 0, 0, 0, 0, 0, 0, 0, 0, 0, 8, 9, 0, 0, 9, 0, 0, 0],[],[0, 0, 0, 0, 0, 0, 0, 4, 0, 0, 0, 4, 0, 0, 0, 0, 0, 0, 0, 0, 0, 0, 0, 0, 4, 0, 0, 0, 0, 0, 0, 0, 0, 0, 0, 0, 0, 0, 0, 0, 0, 0, 0, 0, 0, 0, 0, 0, 0, 0],[],[0, 0, 0, 0, 0, 0, 0, 0, 0, 0, 0, 0, 7, 0, 0, 0, 0, 5, 0, 0, 5, 0, 0, 0, 0, 0, 7, 0, 7, 0, 5, 7, 0, 0, 0, 7, 0, 0, 0, 0, 0, 7, 0, 0, 0, 0, 0, 0, 0, 0],[],[],[0, 0, 0, 0, 3, 0, 0, 0, 3, 0, 3, 0, 0, 0, 0, 0, 0, 0, 0, 0, 0, 0, 0, 0, 0, 0, 0, 0, 0, 0, 0, 0, 0, 0, 3, 0, 0, 0, 0, 0, 0, 0, 0, 0, 0, 0, 0, 0, 0, 3],[0, 0, 0, 0, 0, 0, 0, 0, 0, 0, 0, 0, 0, 1, 1, 1, 1, 0, 0, 0, 0, 10, 0, 0, 0, 1, 0, 0, 0, 0, 0, 0, 10, 0, 0, 0, 10, 0, 10, 0, 1, 0, 0, 0, 1, 0, 0, 10, 0, 0],[2, 2, 0, 2, 0, 0, 0, 0, 0, 0, 0, 0, 0, 0, 0, 0, 0, 0, 0, 0, 0, 0, 0, 0, 0, 0, 0, 6, 0, 0, 0, 0, 0, 2, 0, 0, 0, 2, 0, 6, 0, 0, 0, 0, 0, 6, 0, 0, 2, 0][40, 14, 13, 44, 16, 25, 15],[0, 3, 37, 1, 48, 33],[4, 8, 34, 10, 49],[7, 24, 11],[20, 17, 30],[39, 27, 45],[26, 28, 35, 31, 12, 41],[5, 19, 42, 18, 22, 9],[23, 46, 2, 43, 29, 6],[36, 21, 47, 38, 32]
00000000000000000000000000000000000000000000000000,00000000000010000000000000100001000100000100000000,00000001000100000000000010000000000000000000000000,00000000100000000110100000000000001000000000000001,00000000000000000000000000000000000000000000000000,00000000000001101000010001001010100010000000100100,00100110000000010001001000000100000000101011001000,00001000011000000000000100000000000000000000000000,00000000000000000000000000000000000000000000000000,11010000000000000000000000010000010001010000010010,[],[0, 0, 0, 0, 0, 0, 0, 0, 0, 0, 0, 0, 3, 0, 0, 0, 0, 0, 0, 0, 0, 0, 0, 0, 0, 0, 3, 0, 0, 0, 0, 3, 0, 0, 0, 3, 0, 0, 0, 0, 0, 3, 0, 0, 0, 0, 0, 0, 0, 0],[0, 0, 0, 0, 0, 0, 0, 6, 0, 0, 0, 6, 0, 0, 0, 0, 0, 0, 0, 0, 0, 0, 0, 0, 6, 0, 0, 0, 0, 0, 0, 0, 0, 0, 0, 0, 0, 0, 0, 0, 0, 0, 0, 0, 0, 0, 0, 0, 0, 0],[0, 0, 0, 0, 0, 0, 0, 0, 2, 0, 0, 0, 0, 0, 0, 0, 0, 2, 2, 0, 2, 0, 0, 0, 0, 0, 0, 0, 0, 0, 0, 0, 0, 0, 2, 0, 0, 0, 0, 0, 0, 0, 0, 0, 0, 0, 0, 0, 0, 2],[],[0, 0, 0, 0, 0, 0, 0, 0, 0, 0, 0, 0, 0, 1, 1, 0, 1, 0, 0, 0, 0, 1, 0, 0, 0, 1, 0, 0, 1, 0, 1, 0, 5, 0, 0, 0, 5, 0, 0, 0, 0, 0, 0, 0, 5, 0, 0, 1, 0, 0],[0, 0, 8, 0, 0, 8, 8, 0, 0, 0, 0, 0, 0, 0, 0, 8, 0, 0, 0, 8, 0, 0, 9, 0, 0, 0, 0, 0, 0, 8, 0, 0, 0, 0, 0, 0, 0, 0, 9, 0, 8, 0, 9, 9, 0, 0, 9, 0, 0, 0],[0, 0, 0, 0, 7, 0, 0, 0, 0, 7, 7, 0, 0, 0, 0, 0, 0, 0, 0, 0, 0, 0, 0, 7, 0, 0, 0, 0, 0, 0, 0, 0, 0, 0, 0, 0, 0, 0, 0, 0, 0, 0, 0, 0, 0, 0, 0, 0, 0, 0],[],[10, 10, 0, 10, 0, 0, 0, 0, 0, 0, 0, 0, 0, 0, 0, 0, 0, 0, 0, 0, 0, 0, 0, 0, 0, 0, 0, 10, 0, 0, 0, 0, 0, 10, 0, 0, 0, 10, 0, 10, 0, 0, 0, 0, 0, 10, 0, 0, 10, 0][21, 13, 25, 14, 16, 30, 28, 47],[49, 17, 20, 8, 18, 34],[41, 35, 26, 12, 31],[],[32, 36, 44],[11, 7, 24],[4, 10, 9, 23],[29, 2, 40, 15, 19, 6, 5],[22, 43, 42, 38, 46],[33, 1, 45, 0, 39, 37, 48, 27, 3]
00000000000000000000000000000000000000000000000000,00000000000010000000000000100001000100000100000000,00000001000100000000000010000000000000000000000000,00000000100000000110100000000000001000000000000001,00000000000000000000000000000000000000000000000000,00000000000000101000010000001010100000000000100000,00100110010000010001001100000100000000100011001000,00000000000000000000000000000000000000000000000000,00000000000001000000000001000000000010001000000100,11011000001000000000000000010000010001010000010010,[],[0, 0, 0, 0, 0, 0, 0, 0, 0, 0, 0, 0, 7, 0, 0, 0, 0, 0, 0, 0, 0, 0, 0, 0, 0, 0, 7, 0, 0, 0, 0, 7, 0, 0, 0, 7, 0, 0, 0, 0, 0, 7, 0, 0, 0, 0, 0, 0, 0, 0],[0, 0, 0, 0, 0, 0, 0, 5, 0, 0, 0, 5, 0, 0, 0, 0, 0, 0, 0, 0, 0, 0, 0, 0, 5, 0, 0, 0, 0, 0, 0, 0, 0, 0, 0, 0, 0, 0, 0, 0, 0, 0, 0, 0, 0, 0, 0, 0, 0, 0],[0, 0, 0, 0, 0, 0, 0, 0, 2, 0, 0, 0, 0, 0, 0, 0, 0, 2, 2, 0, 2, 0, 0, 0, 0, 0, 0, 0, 0, 0, 0, 0, 0, 0, 2, 0, 0, 0, 0, 0, 0, 0, 0, 0, 0, 0, 0, 0, 0, 2],[],[0, 0, 0, 0, 0, 0, 0, 0, 0, 0, 0, 0, 0, 0, 9, 0, 10, 0, 0, 0, 0, 9, 0, 0, 0, 0, 0, 0, 9, 0, 10, 0, 9, 0, 0, 0, 0, 0, 0, 0, 0, 0, 0, 0, 9, 0, 0, 0, 0, 0],[0, 0, 4, 0, 0, 1, 4, 0, 0, 1, 0, 0, 0, 0, 0, 4, 0, 0, 0, 1, 0, 0, 1, 4, 0, 0, 0, 0, 0, 1, 0, 0, 0, 0, 0, 0, 0, 0, 4, 0, 0, 0, 1, 1, 0, 0, 1, 0, 0, 0],[],[0, 0, 0, 0, 0, 0, 0, 0, 0, 0, 0, 0, 0, 8, 0, 0, 0, 0, 0, 0, 0, 0, 0, 0, 0, 8, 0, 0, 0, 0, 0, 0, 0, 0, 0, 0, 8, 0, 0, 0, 8, 0, 0, 0, 0, 0, 0, 8, 0, 0],[3, 3, 0, 6, 6, 0, 0, 0, 0, 0, 6, 0, 0, 0, 0, 0, 0, 0, 0, 0, 0, 0, 0, 0, 0, 0, 0, 3, 0, 0, 0, 0, 0, 3, 0, 0, 0, 6, 0, 3, 0, 0, 0, 0, 0, 3, 0, 0, 6, 0][19, 46, 29, 43, 9, 42, 5, 22],[18, 34, 8, 17, 20, 49],[45, 33, 0, 1, 27, 39],[15, 23, 2, 6, 38],[11, 7, 24],[3, 4, 10, 37, 48],[31, 35, 26, 12, 41],[13, 47, 25, 40, 36],[21, 14, 44, 28, 32],[16, 30]
00000000000000000000000000000000000000000000000000,00000110000010010001000000100101000100100100001000,00000001000100000000001010000000000000000000000000,00100000100000000110100000000000001000000010000001,00000000000000000000000000000000000000000000000000,00000000000000101000010000001010100000000000100000,00000000000000000000000000000000000000000000000000,00001000011000000000000100000000000000000001000000,00000000000001000000000001000000000010001000000100,11010000000000000000000000010000010001010000010010,[],[0, 0, 0, 0, 0, 3, 8, 0, 0, 0, 0, 0, 8, 0, 0, 3, 0, 0, 0, 8, 0, 0, 0, 0, 0, 0, 3, 0, 0, 8, 0, 3, 0, 0, 0, 3, 0, 0, 8, 0, 0, 3, 0, 0, 0, 0, 8, 0, 0, 0],[0, 0, 0, 0, 0, 0, 0, 6, 0, 0, 0, 6, 0, 0, 0, 0, 0, 0, 0, 0, 0, 0, 6, 0, 6, 0, 0, 0, 0, 0, 0, 0, 0, 0, 0, 0, 0, 0, 0, 0, 0, 0, 0, 0, 0, 0, 0, 0, 0, 0],[0, 0, 9, 0, 0, 0, 0, 0, 9, 0, 0, 0, 0, 0, 0, 0, 0, 9, 7, 0, 9, 0, 0, 0, 0, 0, 0, 0, 0, 0, 0, 0, 0, 0, 7, 0, 0, 0, 0, 0, 0, 0, 7, 0, 0, 0, 0, 0, 0, 7],[],[0, 0, 0, 0, 0, 0, 0, 0, 0, 0, 0, 0, 0, 0, 1, 0, 1, 0, 0, 0, 0, 1, 0, 0, 0, 0, 0, 0, 1, 0, 1, 0, 1, 0, 0, 0, 0, 0, 0, 0, 0, 0, 0, 0, 1, 0, 0, 0, 0, 0],[],[0, 0, 0, 0, 4, 0, 0, 0, 0, 4, 5, 0, 0, 0, 0, 0, 0, 0, 0, 0, 0, 0, 0, 5, 0, 0, 0, 0, 0, 0, 0, 0, 0, 0, 0, 0, 0, 0, 0, 0, 0, 0, 0, 4, 0, 0, 0, 0, 0, 0],[0, 0, 0, 0, 0, 0, 0, 0, 0, 0, 0, 0, 0, 2, 0, 0, 0, 0, 0, 0, 0, 0, 0, 0, 0, 2, 0, 0, 0, 0, 0, 0, 0, 0, 0, 0, 2, 0, 0, 0, 2, 0, 0, 0, 0, 0, 0, 2, 0, 0],[10, 10, 0, 10, 0, 0, 0, 0, 0, 0, 0, 0, 0, 0, 0, 0, 0, 0, 0, 0, 0, 0, 0, 0, 0, 0, 0, 10, 0, 0, 0, 0, 0, 10, 0, 0, 0, 10, 0, 10, 0, 0, 0, 0, 0, 10, 0, 0, 10, 0][14, 30, 44, 16, 28, 32, 21],[13, 25, 40, 36, 47],[35, 41, 31, 5, 15, 26],[4, 43, 9],[23, 10],[7, 24, 22, 11],[42, 18, 34, 49],[46, 38, 12, 6, 29, 19],[17, 20, 8, 2],[48, 39, 27, 45, 1, 3, 0, 37, 33]
00100110010000000011001100000100000000000011000000,00000000000010010000000000100001000100100100001000,00000001000100000000000010000000000000000000000000,00000000100000000100100000000000001000000000000001,00000000000000000000000000000000000000000000000000,00000000000000101000010000001010100000000000100000,00000000000000000000000000000000000000000000000000,00000000000000000000000000000000000000000000000000,00000000000001000000000001000000000010001000000100,11011000001000000000000000010000010001010000010010,[0, 0, 4, 0, 0, 9, 4, 0, 0, 9, 0, 0, 0, 0, 0, 0, 0, 0, 9, 9, 0, 0, 4, 4, 0, 0, 0, 0, 0, 4, 0, 0, 0, 0, 0, 0, 0, 0, 0, 0, 0, 0, 9, 9, 0, 0, 0, 0, 0, 0],[0, 0, 0, 0, 0, 0, 0, 0, 0, 0, 0, 0, 3, 0, 0, 2, 0, 0, 0, 0, 0, 0, 0, 0, 0, 0, 3, 0, 0, 0, 0, 3, 0, 0, 0, 3, 0, 0, 2, 0, 0, 2, 0, 0, 0, 0, 2, 0, 0, 0],[0, 0, 0, 0, 0, 0, 0, 8, 0, 0, 0, 8, 0, 0, 0, 0, 0, 0, 0, 0, 0, 0, 0, 0, 8, 0, 0, 0, 0, 0, 0, 0, 0, 0, 0, 0, 0, 0, 0, 0, 0, 0, 0, 0, 0, 0, 0, 0, 0, 0],[0, 0, 0, 0, 0, 0, 0, 0, 5, 0, 0, 0, 0, 0, 0, 0, 0, 5, 0, 0, 5, 0, 0, 0, 0, 0, 0, 0, 0, 0, 0, 0, 0, 0, 5, 0, 0, 0, 0, 0, 0, 0, 0, 0, 0, 0, 0, 0, 0, 5],[],[0, 0, 0, 0, 0, 0, 0, 0, 0, 0, 0, 0, 0, 0, 10, 0, 10, 0, 0, 0, 0, 10, 0, 0, 0, 0, 0, 0, 10, 0, 10, 0, 10, 0, 0, 0, 0, 0, 0, 0, 0, 0, 0, 0, 10, 0, 0, 0, 0, 0],[],[],[0, 0, 0, 0, 0, 0, 0, 0, 0, 0, 0, 0, 0, 7, 0, 0, 0, 0, 0, 0, 0, 0, 0, 0, 0, 7, 0, 0, 0, 0, 0, 0, 0, 0, 0, 0, 7, 0, 0, 0, 7, 0, 0, 0, 0, 0, 0, 7, 0, 0],[6, 1, 0, 1, 6, 0, 0, 0, 0, 0, 1, 0, 0, 0, 0, 0, 0, 0, 0, 0, 0, 0, 0, 0, 0, 0, 0, 1, 0, 0, 0, 0, 0, 6, 0, 0, 0, 1, 0, 6, 0, 0, 0, 0, 0, 1, 0, 0, 1, 0][37, 10, 3, 1, 27, 45, 48],[41, 15, 38, 46],[31, 12, 26, 35],[29, 2, 22, 6, 23],[17, 20, 8, 34, 49],[33, 0, 39, 4],[13, 47, 25, 40, 36],[7, 24, 11],[18, 19, 43, 9, 42, 5],[28, 30, 16, 14, 32, 44, 21]
00100110010000000011000100000100000000000011000000,00000000000010000000000000100001000100000100000000,00000001000100000000000010000000000000000000000000,00000000100000000100100000000000001000000000000001,00000000000000000000000000000000000000000000000000,00000000000000101000010000001010100000000000100000,00000000000000010000001000000000000000100000001000,00000000000000000000000000000000000000000000000000,00000000000001000000000001000000000010001000000100,11011000001000000000000000010000010001010000010010,[0, 0, 3, 0, 0, 3, 3, 0, 0, 3, 0, 0, 0, 0, 0, 0, 0, 0, 3, 3, 0, 0, 0, 6, 0, 0, 0, 0, 0, 6, 0, 0, 0, 0, 0, 0, 0, 0, 0, 0, 0, 0, 6, 6, 0, 0, 0, 0, 0, 0],[0, 0, 0, 0, 0, 0, 0, 0, 0, 0, 0, 0, 7, 0, 0, 0, 0, 0, 0, 0, 0, 0, 0, 0, 0, 0, 7, 0, 0, 0, 0, 7, 0, 0, 0, 7, 0, 0, 0, 0, 0, 7, 0, 0, 0, 0, 0, 0, 0, 0],[0, 0, 0, 0, 0, 0, 0, 2, 0, 0, 0, 2, 0, 0, 0, 0, 0, 0, 0, 0, 0, 0, 0, 0, 2, 0, 0, 0, 0, 0, 0, 0, 0, 0, 0, 0, 0, 0, 0, 0, 0, 0, 0, 0, 0, 0, 0, 0, 0, 0],[0, 0, 0, 0, 0, 0, 0, 0, 4, 0, 0, 0, 0, 0, 0, 0, 0, 4, 0, 0, 4, 0, 0, 0, 0, 0, 0, 0, 0, 0, 0, 0, 0, 0, 4, 0, 0, 0, 0, 0, 0, 0, 0, 0, 0, 0, 0, 0, 0, 4],[],[0, 0, 0, 0, 0, 0, 0, 0, 0, 0, 0, 0, 0, 0, 10, 0, 10, 0, 0, 0, 0, 10, 0, 0, 0, 0, 0, 0, 10, 0, 10, 0, 10, 0, 0, 0, 0, 0, 0, 0, 0, 0, 0, 0, 10, 0, 0, 0, 0, 0],[0, 0, 0, 0, 0, 0, 0, 0, 0, 0, 0, 0, 0, 0, 0, 5, 0, 0, 0, 0, 0, 0, 5, 0, 0, 0, 0, 0, 0, 0, 0, 0, 0, 0, 0, 0, 0, 0, 5, 0, 0, 0, 0, 0, 0, 0, 5, 0, 0, 0],[],[0, 0, 0, 0, 0, 0, 0, 0, 0, 0, 0, 0, 0, 8, 0, 0, 0, 0, 0, 0, 0, 0, 0, 0, 0, 8, 0, 0, 0, 0, 0, 0, 0, 0, 0, 0, 8, 0, 0, 0, 8, 0, 0, 0, 0, 0, 0, 8, 0, 0],[9, 1, 0, 1, 9, 0, 0, 0, 0, 0, 9, 0, 0, 0, 0, 0, 0, 0, 0, 0, 0, 0, 0, 0, 0, 0, 0, 9, 0, 0, 0, 0, 0, 1, 0, 0, 0, 1, 0, 9, 0, 0, 0, 0, 0, 1, 0, 0, 1, 0][3, 45, 1, 37, 33, 48],[11, 24, 7],[5, 18, 19, 6, 9, 2],[20, 34, 8, 17, 49],[22, 15, 46, 38],[23, 43, 29, 42],[41, 31, 35, 26, 12],[36, 47, 25, 13, 40],[10, 0, 4, 39, 27],[44, 30, 28, 16, 14, 32, 21]
00100110010000000011000100000101000000000011000000,00000000000000000000000000000000000000000000000000,00000001000100000000000010000000000000000000000000,00000000100000000100100000000000001000000000000001,00000000000000000000000000000000000000000000000000,00000000000000000000000000000000000000000000000000,00000000000010110000001000101010000100100100001000,00000000000000000000000000000000000000000000000000,00000000000001001000010001000000100010001000100100,11011000001000000000000000010000010001010000010010,[0, 0, 3, 0, 0, 4, 4, 0, 0, 4, 0, 0, 0, 0, 0, 0, 0, 0, 3, 4, 0, 0, 0, 4, 0, 0, 0, 0, 0, 4, 0, 3, 0, 0, 0, 0, 0, 0, 0, 0, 0, 0, 3, 3, 0, 0, 0, 0, 0, 0],[],[0, 0, 0, 0, 0, 0, 0, 7, 0, 0, 0, 7, 0, 0, 0, 0, 0, 0, 0, 0, 0, 0, 0, 0, 7, 0, 0, 0, 0, 0, 0, 0, 0, 0, 0, 0, 0, 0, 0, 0, 0, 0, 0, 0, 0, 0, 0, 0, 0, 0],[0, 0, 0, 0, 0, 0, 0, 0, 2, 0, 0, 0, 0, 0, 0, 0, 0, 2, 0, 0, 2, 0, 0, 0, 0, 0, 0, 0, 0, 0, 0, 0, 0, 0, 2, 0, 0, 0, 0, 0, 0, 0, 0, 0, 0, 0, 0, 0, 0, 2],[],[],[0, 0, 0, 0, 0, 0, 0, 0, 0, 0, 0, 0, 1, 0, 1, 1, 0, 0, 0, 0, 0, 0, 1, 0, 0, 0, 1, 0, 5, 0, 5, 0, 0, 0, 0, 5, 0, 0, 5, 0, 0, 1, 0, 0, 0, 0, 1, 0, 0, 0],[],[0, 0, 0, 0, 0, 0, 0, 0, 0, 0, 0, 0, 0, 8, 0, 0, 6, 0, 0, 0, 0, 8, 0, 0, 0, 6, 0, 0, 0, 0, 0, 0, 8, 0, 0, 0, 8, 0, 0, 0, 6, 0, 0, 0, 8, 0, 0, 6, 0, 0],[9, 10, 0, 10, 10, 0, 0, 0, 0, 0, 9, 0, 0, 0, 0, 0, 0, 0, 0, 0, 0, 0, 0, 0, 0, 0, 0, 10, 0, 0, 0, 0, 0, 9, 0, 0, 0, 10, 0, 9, 0, 0, 0, 0, 0, 10, 0, 0, 9, 0][41, 14, 12, 26, 46, 22, 15],[8, 49, 34, 20, 17],[42, 18, 2, 43, 31],[29, 23, 19, 9, 6, 5],[30, 28, 35, 38],[47, 16, 40, 25],[24, 7, 11],[44, 21, 32, 13, 36],[33, 48, 10, 39, 0],[3, 45, 37, 4, 1, 27]
00100110010000000011000100000100000000000011000000,00000000000010101000010000101011100100000100100000,00000000000000000000000000000000000000000000000000,00000000100000000100100000000000001000000000000001,00000000000000000000000000000000000000000000000000,00000000000000000000000000000000000000000000000000,00000001000000010000001010000000000000100000001000,11011000001000000000000000010000010001010000010010,00000000000101000000000001000000000010001000000100,00000000000000000000000000000000000000000000000000,[0, 0, 4, 0, 0, 8, 8, 0, 0, 8, 0, 0, 0, 0, 0, 0, 0, 0, 4, 8, 0, 0, 0, 4, 0, 0, 0, 0, 0, 8, 0, 0, 0, 0, 0, 0, 0, 0, 0, 0, 0, 0, 8, 8, 0, 0, 0, 0, 0, 0],[0, 0, 0, 0, 0, 0, 0, 0, 0, 0, 0, 0, 3, 0, 3, 0, 10, 0, 0, 0, 0, 10, 0, 0, 0, 0, 3, 0, 10, 0, 3, 10, 10, 0, 0, 10, 0, 0, 0, 0, 0, 10, 0, 0, 3, 0, 0, 0, 0, 0],[],[0, 0, 0, 0, 0, 0, 0, 0, 2, 0, 0, 0, 0, 0, 0, 0, 0, 2, 0, 0, 2, 0, 0, 0, 0, 0, 0, 0, 0, 0, 0, 0, 0, 0, 2, 0, 0, 0, 0, 0, 0, 0, 0, 0, 0, 0, 0, 0, 0, 2],[],[],[0, 0, 0, 0, 0, 0, 0, 1, 0, 0, 0, 0, 0, 0, 0, 1, 0, 0, 0, 0, 0, 0, 1, 0, 1, 0, 0, 0, 0, 0, 0, 0, 0, 0, 0, 0, 0, 0, 1, 0, 0, 0, 0, 0, 0, 0, 1, 0, 0, 0],[7, 9, 0, 7, 9, 0, 0, 0, 0, 0, 9, 0, 0, 0, 0, 0, 0, 0, 0, 0, 0, 0, 0, 0, 0, 0, 0, 9, 0, 0, 0, 0, 0, 7, 0, 0, 0, 7, 0, 9, 0, 0, 0, 0, 0, 7, 0, 0, 9, 0],[0, 0, 0, 0, 0, 0, 0, 0, 0, 0, 0, 5, 0, 5, 0, 0, 0, 0, 0, 0, 0, 0, 0, 0, 0, 5, 0, 0, 0, 0, 0, 0, 0, 0, 0, 0, 6, 0, 0, 0, 6, 0, 0, 0, 0, 0, 0, 6, 0, 0],[][22, 24, 7, 38, 46, 15],[20, 17, 8, 34, 49],[12, 30, 44, 14, 26],[18, 2, 23],[25, 13, 11],[36, 47, 40],[3, 37, 33, 45, 0],[9, 5, 42, 6, 29, 19, 43],[27, 10, 1, 48, 39, 4],[21, 31, 41, 28, 16, 35, 32]
00100110010000000011000100000100000000000011000000,00000000000010000000000000100001000100000100000000,00000001000100000000000010000000000000000000000000,00000000100000000100100000000000001000000000000001,00000000000000000000000000000000000000000000000000,00000000000001101000010001001010100010000000100100,00000000000000010000001000000000000000101000001000,11011000001000000000000000010000010001010000010010,00000000000000000000000000000000000000000000000000,00000000000000000000000000000000000000000000000000,[0, 0, 4, 0, 0, 9, 9, 0, 0, 9, 0, 0, 0, 0, 0, 0, 0, 0, 9, 9, 0, 0, 0, 9, 0, 0, 0, 0, 0, 4, 0, 0, 0, 0, 0, 0, 0, 0, 0, 0, 0, 0, 9, 9, 0, 0, 0, 0, 0, 0],[0, 0, 0, 0, 0, 0, 0, 0, 0, 0, 0, 0, 7, 0, 0, 0, 0, 0, 0, 0, 0, 0, 0, 0, 0, 0, 7, 0, 0, 0, 0, 7, 0, 0, 0, 7, 0, 0, 0, 0, 0, 7, 0, 0, 0, 0, 0, 0, 0, 0],[0, 0, 0, 0, 0, 0, 0, 5, 0, 0, 0, 5, 0, 0, 0, 0, 0, 0, 0, 0, 0, 0, 0, 0, 5, 0, 0, 0, 0, 0, 0, 0, 0, 0, 0, 0, 0, 0, 0, 0, 0, 0, 0, 0, 0, 0, 0, 0, 0, 0],[0, 0, 0, 0, 0, 0, 0, 0, 3, 0, 0, 0, 0, 0, 0, 0, 0, 3, 0, 0, 3, 0, 0, 0, 0, 0, 0, 0, 0, 0, 0, 0, 0, 0, 3, 0, 0, 0, 0, 0, 0, 0, 0, 0, 0, 0, 0, 0, 0, 3],[],[0, 0, 0, 0, 0, 0, 0, 0, 0, 0, 0, 0, 0, 2, 2, 0, 8, 0, 0, 0, 0, 8, 0, 0, 0, 2, 0, 0, 8, 0, 8, 0, 2, 0, 0, 0, 2, 0, 0, 0, 0, 0, 0, 0, 2, 0, 0, 8, 0, 0],[0, 0, 0, 0, 0, 0, 0, 0, 0, 0, 0, 0, 0, 0, 0, 10, 0, 0, 0, 0, 0, 0, 10, 0, 0, 0, 0, 0, 0, 0, 0, 0, 0, 0, 0, 0, 0, 0, 10, 0, 10, 0, 0, 0, 0, 0, 10, 0, 0, 0],[6, 1, 0, 6, 1, 0, 0, 0, 0, 0, 1, 0, 0, 0, 0, 0, 0, 0, 0, 0, 0, 0, 0, 0, 0, 0, 0, 1, 0, 0, 0, 0, 0, 1, 0, 0, 0, 6, 0, 6, 0, 0, 0, 0, 0, 1, 0, 0, 1, 0],[],[][45, 10, 48, 33, 27, 1, 4],[44, 36, 13, 25, 32, 14],[17, 20, 34, 8, 49],[2, 29],[11, 7, 24],[0, 39, 37, 3],[12, 41, 35, 31, 26],[16, 28, 21, 47, 30],[5, 18, 42, 9, 23, 6, 43, 19],[38, 40, 15, 22, 46]
00100110010000000111101100000100000000000011000000,00000000000010010000000000100001000100100100001000,00000001000100000000000010000000000000000000000000,00000000000000000000000000000000000000000000000000,00000000000000000000000000000000000000000000000000,00000000000000101000010000001010100000000000100000,00000000000000000000000000000000000000000000000000,00001000101000000000000000000000001000000000000001,00000000000001000000000001000000000010001000000100,11010000000000000000000000010000010001010000010010,[0, 0, 7, 0, 0, 10, 7, 0, 0, 7, 0, 0, 0, 0, 0, 0, 0, 10, 7, 10, 7, 0, 10, 10, 0, 0, 0, 0, 0, 7, 0, 0, 0, 0, 0, 0, 0, 0, 0, 0, 0, 0, 10, 7, 0, 0, 0, 0, 0, 0],[0, 0, 0, 0, 0, 0, 0, 0, 0, 0, 0, 0, 9, 0, 0, 9, 0, 0, 0, 0, 0, 0, 0, 0, 0, 0, 9, 0, 0, 0, 0, 5, 0, 0, 0, 9, 0, 0, 5, 0, 0, 9, 0, 0, 0, 0, 5, 0, 0, 0],[0, 0, 0, 0, 0, 0, 0, 6, 0, 0, 0, 6, 0, 0, 0, 0, 0, 0, 0, 0, 0, 0, 0, 0, 6, 0, 0, 0, 0, 0, 0, 0, 0, 0, 0, 0, 0, 0, 0, 0, 0, 0, 0, 0, 0, 0, 0, 0, 0, 0],[],[],[0, 0, 0, 0, 0, 0, 0, 0, 0, 0, 0, 0, 0, 0, 1, 0, 1, 0, 0, 0, 0, 1, 0, 0, 0, 0, 0, 0, 1, 0, 1, 0, 1, 0, 0, 0, 0, 0, 0, 0, 0, 0, 0, 0, 1, 0, 0, 0, 0, 0],[],[0, 0, 0, 0, 3, 0, 0, 0, 3, 0, 3, 0, 0, 0, 0, 0, 0, 0, 0, 0, 0, 0, 0, 0, 0, 0, 0, 0, 0, 0, 0, 0, 0, 0, 3, 0, 0, 0, 0, 0, 0, 0, 0, 0, 0, 0, 0, 0, 0, 3],[0, 0, 0, 0, 0, 0, 0, 0, 0, 0, 0, 0, 0, 2, 0, 0, 0, 0, 0, 0, 0, 0, 0, 0, 0, 2, 0, 0, 0, 0, 0, 0, 0, 0, 0, 0, 2, 0, 0, 0, 2, 0, 0, 0, 0, 0, 0, 2, 0, 0],[8, 8, 0, 8, 0, 0, 0, 0, 0, 0, 0, 0, 0, 0, 0, 0, 0, 0, 0, 0, 0, 0, 0, 0, 0, 0, 0, 8, 0, 0, 0, 0, 0, 8, 0, 0, 0, 4, 0, 4, 0, 0, 0, 0, 0, 8, 0, 0, 8, 0][14, 32, 21, 44, 28, 16, 30],[25, 47, 13, 36, 40],[4, 10, 49, 34, 8],[37, 39],[31, 46, 38],[7, 24, 11],[9, 29, 2, 18, 20, 43, 6],[1, 33, 45, 0, 48, 27, 3],[35, 12, 15, 41, 26],[22, 23, 5, 19, 42, 17]
00100110010000000011000100000100000000000011000000,00000000000010000000000000100001000100000100000000,00000000000000000000000000000000000000000000000000,00000000100000000100100000000000001000000000000001,00000000000000000000000000000000000000000000000000,00000000000000101000010000001010100000000000100000,00000001000000010000001010000000000000100000001000,11011000001000000000000000010000010001010000010010,00000000000101000000000001000000000010001000000100,00000000000000000000000000000000000000000000000000,[0, 0, 10, 0, 0, 10, 4, 0, 0, 10, 0, 0, 0, 0, 0, 0, 0, 0, 4, 4, 0, 0, 0, 4, 0, 0, 0, 0, 0, 10, 0, 0, 0, 0, 0, 0, 0, 0, 0, 0, 0, 0, 4, 10, 0, 0, 0, 0, 0, 0],[0, 0, 0, 0, 0, 0, 0, 0, 0, 0, 0, 0, 6, 0, 0, 0, 0, 0, 0, 0, 0, 0, 0, 0, 0, 0, 6, 0, 0, 0, 0, 6, 0, 0, 0, 6, 0, 0, 0, 0, 0, 6, 0, 0, 0, 0, 0, 0, 0, 0],[],[0, 0, 0, 0, 0, 0, 0, 0, 2, 0, 0, 0, 0, 0, 0, 0, 0, 2, 0, 0, 2, 0, 0, 0, 0, 0, 0, 0, 0, 0, 0, 0, 0, 0, 2, 0, 0, 0, 0, 0, 0, 0, 0, 0, 0, 0, 0, 0, 0, 2],[],[0, 0, 0, 0, 0, 0, 0, 0, 0, 0, 0, 0, 0, 0, 3, 0, 3, 0, 0, 0, 0, 8, 0, 0, 0, 0, 0, 0, 3, 0, 3, 0, 8, 0, 0, 0, 0, 0, 0, 0, 0, 0, 0, 0, 8, 0, 0, 0, 0, 0],[0, 0, 0, 0, 0, 0, 0, 1, 0, 0, 0, 0, 0, 0, 0, 1, 0, 0, 0, 0, 0, 0, 1, 0, 1, 0, 0, 0, 0, 0, 0, 0, 0, 0, 0, 0, 0, 0, 1, 0, 0, 0, 0, 0, 0, 0, 1, 0, 0, 0],[5, 7, 0, 7, 5, 0, 0, 0, 0, 0, 5, 0, 0, 0, 0, 0, 0, 0, 0, 0, 0, 0, 0, 0, 0, 0, 0, 7, 0, 0, 0, 0, 0, 7, 0, 0, 0, 7, 0, 7, 0, 0, 0, 0, 0, 5, 0, 0, 7, 0],[0, 0, 0, 0, 0, 0, 0, 0, 0, 0, 0, 9, 0, 9, 0, 0, 0, 0, 0, 0, 0, 0, 0, 0, 0, 9, 0, 0, 0, 0, 0, 0, 0, 0, 0, 0, 9, 0, 0, 0, 9, 0, 0, 0, 0, 0, 0, 9, 0, 0],[][15, 46, 22, 7, 24, 38],[8, 17, 20, 34, 49],[16, 30, 28, 14],[18, 23, 19, 42, 6],[45, 4, 10, 0],[12, 41, 26, 35, 31],[37, 39, 27, 48, 33, 3, 1],[44, 21, 32],[11, 40, 25, 13, 47, 36],[2, 5, 29, 43, 9]
00100110010000000011001100000100000000000011000000,00000000000010010000000000100001000100100100001000,00000001000100000000000010000000000000000000000000,00000000100000000100100000000000001000000000000001,00000000000000000000000000000000000000000000000000,00000000000001101000010001001010100010001000100100,00000000000000000000000000000000000000000000000000,00000000000000000000000000000000000000000000000000,00000000000000000000000000000000000000000000000000,11011000001000000000000000010000010001010000010010,[0, 0, 9, 0, 0, 9, 10, 0, 0, 10, 0, 0, 0, 0, 0, 0, 0, 0, 10, 10, 0, 0, 9, 9, 0, 0, 0, 0, 0, 10, 0, 0, 0, 0, 0, 0, 0, 0, 0, 0, 0, 0, 9, 9, 0, 0, 0, 0, 0, 0],[0, 0, 0, 0, 0, 0, 0, 0, 0, 0, 0, 0, 6, 0, 0, 6, 0, 0, 0, 0, 0, 0, 0, 0, 0, 0, 6, 0, 0, 0, 0, 4, 0, 0, 0, 4, 0, 0, 6, 0, 0, 4, 0, 0, 0, 0, 4, 0, 0, 0],[0, 0, 0, 0, 0, 0, 0, 5, 0, 0, 0, 5, 0, 0, 0, 0, 0, 0, 0, 0, 0, 0, 0, 0, 5, 0, 0, 0, 0, 0, 0, 0, 0, 0, 0, 0, 0, 0, 0, 0, 0, 0, 0, 0, 0, 0, 0, 0, 0, 0],[0, 0, 0, 0, 0, 0, 0, 0, 3, 0, 0, 0, 0, 0, 0, 0, 0, 3, 0, 0, 3, 0, 0, 0, 0, 0, 0, 0, 0, 0, 0, 0, 0, 0, 3, 0, 0, 0, 0, 0, 0, 0, 0, 0, 0, 0, 0, 0, 0, 3],[],[0, 0, 0, 0, 0, 0, 0, 0, 0, 0, 0, 0, 0, 1, 8, 0, 1, 0, 0, 0, 0, 8, 0, 0, 0, 1, 0, 0, 1, 0, 8, 0, 8, 0, 0, 0, 8, 0, 0, 0, 1, 0, 0, 0, 1, 0, 0, 1, 0, 0],[],[],[],[7, 7, 0, 7, 2, 0, 0, 0, 0, 0, 2, 0, 0, 0, 0, 0, 0, 0, 0, 0, 0, 0, 0, 0, 0, 0, 0, 2, 0, 0, 0, 0, 0, 2, 0, 0, 0, 2, 0, 2, 0, 0, 0, 0, 0, 7, 0, 0, 7, 0][28, 40, 47, 44, 13, 25, 16],[33, 10, 4, 37, 39, 27],[34, 49, 8, 20, 17],[31, 35, 41, 46],[11, 7, 24],[38, 15, 26, 12],[45, 48, 0, 1, 3],[30, 14, 36, 21, 32],[2, 23, 22, 42, 5, 43],[29, 19, 6, 9, 18]
00100110010000000011000100000100000000000011000000,00000000000010000000000000100001000100000100000000,00000001000100000000000010000000000000000000000000,00000000100000000100100000000000001000000000000001,00000000000000000000000000000000000000000000000000,00000000000001101000010001001010100010000000100100,00000000000000010000001000000000000000101000001000,00001000001000000000000000000000000000000000000000,00000000000000000000000000000000000000000000000000,11010000000000000000000000010000010001010000010010,[0, 0, 3, 0, 0, 8, 3, 0, 0, 3, 0, 0, 0, 0, 0, 0, 0, 0, 8, 3, 0, 0, 0, 8, 0, 0, 0, 0, 0, 8, 0, 0, 0, 0, 0, 0, 0, 0, 0, 0, 0, 0, 8, 3, 0, 0, 0, 0, 0, 0],[0, 0, 0, 0, 0, 0, 0, 0, 0, 0, 0, 0, 7, 0, 0, 0, 0, 0, 0, 0, 0, 0, 0, 0, 0, 0, 7, 0, 0, 0, 0, 7, 0, 0, 0, 7, 0, 0, 0, 0, 0, 7, 0, 0, 0, 0, 0, 0, 0, 0],[0, 0, 0, 0, 0, 0, 0, 4, 0, 0, 0, 4, 0, 0, 0, 0, 0, 0, 0, 0, 0, 0, 0, 0, 4, 0, 0, 0, 0, 0, 0, 0, 0, 0, 0, 0, 0, 0, 0, 0, 0, 0, 0, 0, 0, 0, 0, 0, 0, 0],[0, 0, 0, 0, 0, 0, 0, 0, 9, 0, 0, 0, 0, 0, 0, 0, 0, 9, 0, 0, 9, 0, 0, 0, 0, 0, 0, 0, 0, 0, 0, 0, 0, 0, 9, 0, 0, 0, 0, 0, 0, 0, 0, 0, 0, 0, 0, 0, 0, 9],[],[0, 0, 0, 0, 0, 0, 0, 0, 0, 0, 0, 0, 0, 1, 6, 0, 1, 0, 0, 0, 0, 6, 0, 0, 0, 6, 0, 0, 6, 0, 6, 0, 1, 0, 0, 0, 1, 0, 0, 0, 0, 0, 0, 0, 1, 0, 0, 1, 0, 0],[0, 0, 0, 0, 0, 0, 0, 0, 0, 0, 0, 0, 0, 0, 0, 10, 0, 0, 0, 0, 0, 0, 10, 0, 0, 0, 0, 0, 0, 0, 0, 0, 0, 0, 0, 0, 0, 0, 10, 0, 10, 0, 0, 0, 0, 0, 10, 0, 0, 0],[0, 0, 0, 0, 5, 0, 0, 0, 0, 0, 5, 0, 0, 0, 0, 0, 0, 0, 0, 0, 0, 0, 0, 0, 0, 0, 0, 0, 0, 0, 0, 0, 0, 0, 0, 0, 0, 0, 0, 0, 0, 0, 0, 0, 0, 0, 0, 0, 0, 0],[],[2, 2, 0, 2, 0, 0, 0, 0, 0, 0, 0, 0, 0, 0, 0, 0, 0, 0, 0, 0, 0, 0, 0, 0, 0, 0, 0, 2, 0, 0, 0, 0, 0, 2, 0, 0, 0, 2, 0, 2, 0, 0, 0, 0, 0, 2, 0, 0, 2, 0][47, 32, 36, 13, 44, 16],[0, 45, 1, 37, 27, 3, 39, 48, 33],[19, 6, 2, 43, 9],[24, 7, 11],[10, 4],[21, 14, 30, 28, 25],[31, 35, 41, 26, 12],[18, 23, 5, 29, 42],[20, 34, 17, 49, 8],[46, 22, 40, 38, 15]
00000000000000000000000000000000000000000000000000,00000000000010000000000000100001000100000100000000,00000001000100000000000010000000000000000000000000,00000000100000000110100000000000001000000000000001,00000000000000000000000000000000000000000000000000,00000000000000101000010000001010100000000000100000,00100110000000010001001000000100000000100011001000,00001000011000000000000100000000000000000000000000,00000000000001000000000001000000000010001000000100,11010000000000000000000000010000010001010000010010,[],[0, 0, 0, 0, 0, 0, 0, 0, 0, 0, 0, 0, 6, 0, 0, 0, 0, 0, 0, 0, 0, 0, 0, 0, 0, 0, 6, 0, 0, 0, 0, 6, 0, 0, 0, 6, 0, 0, 0, 0, 0, 6, 0, 0, 0, 0, 0, 0, 0, 0],[0, 0, 0, 0, 0, 0, 0, 8, 0, 0, 0, 8, 0, 0, 0, 0, 0, 0, 0, 0, 0, 0, 0, 0, 8, 0, 0, 0, 0, 0, 0, 0, 0, 0, 0, 0, 0, 0, 0, 0, 0, 0, 0, 0, 0, 0, 0, 0, 0, 0],[0, 0, 0, 0, 0, 0, 0, 0, 2, 0, 0, 0, 0, 0, 0, 0, 0, 2, 2, 0, 2, 0, 0, 0, 0, 0, 0, 0, 0, 0, 0, 0, 0, 0, 2, 0, 0, 0, 0, 0, 0, 0, 0, 0, 0, 0, 0, 0, 0, 2],[],[0, 0, 0, 0, 0, 0, 0, 0, 0, 0, 0, 0, 0, 0, 4, 0, 4, 0, 0, 0, 0, 7, 0, 0, 0, 0, 0, 0, 7, 0, 4, 0, 7, 0, 0, 0, 0, 0, 0, 0, 0, 0, 0, 0, 7, 0, 0, 0, 0, 0],[0, 0, 10, 0, 0, 10, 9, 0, 0, 0, 0, 0, 0, 0, 0, 10, 0, 0, 0, 9, 0, 0, 9, 0, 0, 0, 0, 0, 0, 9, 0, 0, 0, 0, 0, 0, 0, 0, 9, 0, 0, 0, 9, 9, 0, 0, 10, 0, 0, 0],[0, 0, 0, 0, 5, 0, 0, 0, 0, 5, 5, 0, 0, 0, 0, 0, 0, 0, 0, 0, 0, 0, 0, 5, 0, 0, 0, 0, 0, 0, 0, 0, 0, 0, 0, 0, 0, 0, 0, 0, 0, 0, 0, 0, 0, 0, 0, 0, 0, 0],[0, 0, 0, 0, 0, 0, 0, 0, 0, 0, 0, 0, 0, 3, 0, 0, 0, 0, 0, 0, 0, 0, 0, 0, 0, 3, 0, 0, 0, 0, 0, 0, 0, 0, 0, 0, 3, 0, 0, 0, 3, 0, 0, 0, 0, 0, 0, 3, 0, 0],[1, 1, 0, 1, 0, 0, 0, 0, 0, 0, 0, 0, 0, 0, 0, 0, 0, 0, 0, 0, 0, 0, 0, 0, 0, 0, 0, 1, 0, 0, 0, 0, 0, 1, 0, 0, 0, 1, 0, 1, 0, 0, 0, 0, 0, 1, 0, 0, 1, 0][33, 27, 48, 39, 3, 45, 37, 1, 0],[20, 18, 34, 8, 17, 49],[13, 25, 47, 40, 36],[16, 30, 14],[9, 23, 10, 4],[31, 26, 12, 41, 35],[21, 32, 28, 44],[24, 7, 11],[38, 19, 43, 22, 29, 42, 6],[5, 46, 15, 2]
00000000000000000000000000000000000000000000000000,00000000000000000000000000000000000000000000000000,00000001000100000000000010000000000000000000000000,00000000000000000000000000000000000000000000000000,00000000100010000110100000000001001000000010000001,00000000000000101000010000101010100100000100100000,00100110010000010001001100000100000000100001001000,00000000000000000000000000000000000000000000000000,00000000000001000000000001000000000010001000000100,11011000001000000000000000010000010001010000010010,[],[],[0, 0, 0, 0, 0, 0, 0, 4, 0, 0, 0, 4, 0, 0, 0, 0, 0, 0, 0, 0, 0, 0, 0, 0, 4, 0, 0, 0, 0, 0, 0, 0, 0, 0, 0, 0, 0, 0, 0, 0, 0, 0, 0, 0, 0, 0, 0, 0, 0, 0],[],[0, 0, 0, 0, 0, 0, 0, 0, 1, 0, 0, 0, 1, 0, 0, 0, 0, 1, 1, 0, 1, 0, 0, 0, 0, 0, 0, 0, 0, 0, 0, 1, 0, 0, 1, 0, 0, 0, 0, 0, 0, 0, 1, 0, 0, 0, 0, 0, 0, 1],[0, 0, 0, 0, 0, 0, 0, 0, 0, 0, 0, 0, 0, 0, 10, 0, 3, 0, 0, 0, 0, 10, 0, 0, 0, 0, 10, 0, 10, 0, 10, 0, 3, 0, 0, 10, 0, 0, 0, 0, 0, 3, 0, 0, 3, 0, 0, 0, 0, 0],[0, 0, 8, 0, 0, 8, 8, 0, 0, 2, 0, 0, 0, 0, 0, 2, 0, 0, 0, 8, 0, 0, 8, 2, 0, 0, 0, 0, 0, 8, 0, 0, 0, 0, 0, 0, 0, 0, 8, 0, 0, 0, 0, 8, 0, 0, 2, 0, 0, 0],[],[0, 0, 0, 0, 0, 0, 0, 0, 0, 0, 0, 0, 0, 7, 0, 0, 0, 0, 0, 0, 0, 0, 0, 0, 0, 7, 0, 0, 0, 0, 0, 0, 0, 0, 0, 0, 7, 0, 0, 0, 7, 0, 0, 0, 0, 0, 0, 7, 0, 0],[5, 9, 0, 9, 5, 0, 0, 0, 0, 0, 5, 0, 0, 0, 0, 0, 0, 0, 0, 0, 0, 0, 0, 0, 0, 0, 0, 9, 0, 0, 0, 0, 0, 9, 0, 0, 0, 9, 0, 5, 0, 0, 0, 0, 0, 9, 0, 0, 5, 0][31, 17, 8, 34, 18, 42, 20, 12, 49],[15, 46, 23, 9],[16, 32, 44, 41],[11, 7, 24],[0, 10, 4, 39, 48],[],[36, 25, 13, 47, 40],[38, 22, 29, 43, 2, 6, 5, 19],[45, 3, 27, 33, 1, 37],[26, 35, 21, 14, 28, 30]
00100110010000000011000100000100000000000011000000,00000000000010000000000000100001000100000100000000,00000001000100000000000010000000000000000000000000,00000000100000000100100000000000001000000000000001,00000000000000000000000000000000000000000000000000,00000000000000101000010000001010100000000000100000,00000000000000010000001000000000000000100000001000,00000000000000000000000000000000000000000000000000,00000000000001000000000001000000000010001000000100,11011000001000000000000000010000010001010000010010,[0, 0, 5, 0, 0, 5, 5, 0, 0, 5, 0, 0, 0, 0, 0, 0, 0, 0, 2, 5, 0, 0, 0, 5, 0, 0, 0, 0, 0, 2, 0, 0, 0, 0, 0, 0, 0, 0, 0, 0, 0, 0, 2, 2, 0, 0, 0, 0, 0, 0],[0, 0, 0, 0, 0, 0, 0, 0, 0, 0, 0, 0, 6, 0, 0, 0, 0, 0, 0, 0, 0, 0, 0, 0, 0, 0, 6, 0, 0, 0, 0, 6, 0, 0, 0, 6, 0, 0, 0, 0, 0, 6, 0, 0, 0, 0, 0, 0, 0, 0],[0, 0, 0, 0, 0, 0, 0, 9, 0, 0, 0, 9, 0, 0, 0, 0, 0, 0, 0, 0, 0, 0, 0, 0, 9, 0, 0, 0, 0, 0, 0, 0, 0, 0, 0, 0, 0, 0, 0, 0, 0, 0, 0, 0, 0, 0, 0, 0, 0, 0],[0, 0, 0, 0, 0, 0, 0, 0, 4, 0, 0, 0, 0, 0, 0, 0, 0, 4, 0, 0, 4, 0, 0, 0, 0, 0, 0, 0, 0, 0, 0, 0, 0, 0, 4, 0, 0, 0, 0, 0, 0, 0, 0, 0, 0, 0, 0, 0, 0, 4],[],[0, 0, 0, 0, 0, 0, 0, 0, 0, 0, 0, 0, 0, 0, 1, 0, 1, 0, 0, 0, 0, 1, 0, 0, 0, 0, 0, 0, 1, 0, 1, 0, 1, 0, 0, 0, 0, 0, 0, 0, 0, 0, 0, 0, 1, 0, 0, 0, 0, 0],[0, 0, 0, 0, 0, 0, 0, 0, 0, 0, 0, 0, 0, 0, 0, 7, 0, 0, 0, 0, 0, 0, 7, 0, 0, 0, 0, 0, 0, 0, 0, 0, 0, 0, 0, 0, 0, 0, 7, 0, 0, 0, 0, 0, 0, 0, 7, 0, 0, 0],[],[0, 0, 0, 0, 0, 0, 0, 0, 0, 0, 0, 0, 0, 3, 0, 0, 0, 0, 0, 0, 0, 0, 0, 0, 0, 3, 0, 0, 0, 0, 0, 0, 0, 0, 0, 0, 3, 0, 0, 0, 3, 0, 0, 0, 0, 0, 0, 3, 0, 0],[10, 8, 0, 10, 8, 0, 0, 0, 0, 0, 8, 0, 0, 0, 0, 0, 0, 0, 0, 0, 0, 0, 0, 0, 0, 0, 0, 10, 0, 0, 0, 0, 0, 10, 0, 0, 0, 8, 0, 10, 0, 0, 0, 0, 0, 8, 0, 0, 8, 0][44, 30, 28, 16, 21, 32, 14],[43, 18, 42, 29],[25, 47, 13, 40, 36],[17, 20, 34, 49, 8],[19, 5, 6, 23, 9, 2],[12, 41, 26, 35, 31],[46, 22, 38, 15],[10, 1, 4, 37, 48, 45],[24, 7, 11],[39, 33, 3, 0, 27]
00100110010000000111100100000100000000000011000000,00000000000010000000000000100001000100000100000000,00000001000100000000000010000000000000000000000000,00000000000000000000000000000000000000000000000000,00000000000000000000000000000000000000000000000000,00000000000000101000010000001010100000000000100000,00000000000000010000001000000000000000100000001000,00001000101000000000000000000000001000000000000001,00000000000001000000000001000000000010001000000100,11010000000000000000000000010000010001010000010010,[0, 0, 5, 0, 0, 8, 5, 0, 0, 5, 0, 0, 0, 0, 0, 0, 0, 8, 5, 8, 8, 0, 0, 5, 0, 0, 0, 0, 0, 5, 0, 0, 0, 0, 0, 0, 0, 0, 0, 0, 0, 0, 8, 5, 0, 0, 0, 0, 0, 0],[0, 0, 0, 0, 0, 0, 0, 0, 0, 0, 0, 0, 7, 0, 0, 0, 0, 0, 0, 0, 0, 0, 0, 0, 0, 0, 7, 0, 0, 0, 0, 7, 0, 0, 0, 7, 0, 0, 0, 0, 0, 7, 0, 0, 0, 0, 0, 0, 0, 0],[0, 0, 0, 0, 0, 0, 0, 9, 0, 0, 0, 9, 0, 0, 0, 0, 0, 0, 0, 0, 0, 0, 0, 0, 9, 0, 0, 0, 0, 0, 0, 0, 0, 0, 0, 0, 0, 0, 0, 0, 0, 0, 0, 0, 0, 0, 0, 0, 0, 0],[],[],[0, 0, 0, 0, 0, 0, 0, 0, 0, 0, 0, 0, 0, 0, 1, 0, 1, 0, 0, 0, 0, 1, 0, 0, 0, 0, 0, 0, 1, 0, 1, 0, 1, 0, 0, 0, 0, 0, 0, 0, 0, 0, 0, 0, 1, 0, 0, 0, 0, 0],[0, 0, 0, 0, 0, 0, 0, 0, 0, 0, 0, 0, 0, 0, 0, 2, 0, 0, 0, 0, 0, 0, 2, 0, 0, 0, 0, 0, 0, 0, 0, 0, 0, 0, 0, 0, 0, 0, 2, 0, 0, 0, 0, 0, 0, 0, 2, 0, 0, 0],[0, 0, 0, 0, 6, 0, 0, 0, 6, 0, 6, 0, 0, 0, 0, 0, 0, 0, 0, 0, 0, 0, 0, 0, 0, 0, 0, 0, 0, 0, 0, 0, 0, 0, 6, 0, 0, 0, 0, 0, 0, 0, 0, 0, 0, 0, 0, 0, 0, 6],[0, 0, 0, 0, 0, 0, 0, 0, 0, 0, 0, 0, 0, 10, 0, 0, 0, 0, 0, 0, 0, 0, 0, 0, 0, 10, 0, 0, 0, 0, 0, 0, 0, 0, 0, 0, 10, 0, 0, 0, 10, 0, 0, 0, 0, 0, 0, 10, 0, 0],[3, 3, 0, 4, 0, 0, 0, 0, 0, 0, 0, 0, 0, 0, 0, 0, 0, 0, 0, 0, 0, 0, 0, 0, 0, 0, 0, 3, 0, 0, 0, 0, 0, 4, 0, 0, 0, 3, 0, 3, 0, 0, 0, 0, 0, 3, 0, 0, 3, 0][14, 28, 32, 21, 44, 16, 30],[15, 22, 46, 38],[1, 37, 48, 39, 27, 45, 0],[3, 33],[2, 18, 29, 6, 23, 43, 9],[8, 49, 34, 4, 10],[41, 35, 31, 26, 12],[19, 5, 42, 20, 17],[11, 7, 24],[40, 36, 47, 25, 13]
00100110110000000111101100000100001000000011000001,00000000000010010000000000100001000100100100001000,00000001000100000000000010000000000000000000000000,00000000000000000000000000000000000000000000000000,00000000000000000000000000000000000000000000000000,00000000000001101000010001001010100010001000100100,00000000000000000000000000000000000000000000000000,00000000000000000000000000000000000000000000000000,00000000000000000000000000000000000000000000000000,11011000001000000000000000010000010001010000010010,[0, 0, 1, 0, 0, 1, 1, 0, 10, 10, 0, 0, 0, 0, 0, 0, 0, 1, 10, 10, 1, 0, 10, 1, 0, 0, 0, 0, 0, 1, 0, 0, 0, 0, 10, 0, 0, 0, 0, 0, 0, 0, 1, 1, 0, 0, 0, 0, 0, 10],[0, 0, 0, 0, 0, 0, 0, 0, 0, 0, 0, 0, 3, 0, 0, 3, 0, 0, 0, 0, 0, 0, 0, 0, 0, 0, 9, 0, 0, 0, 0, 9, 0, 0, 0, 9, 0, 0, 9, 0, 0, 3, 0, 0, 0, 0, 3, 0, 0, 0],[0, 0, 0, 0, 0, 0, 0, 7, 0, 0, 0, 7, 0, 0, 0, 0, 0, 0, 0, 0, 0, 0, 0, 0, 7, 0, 0, 0, 0, 0, 0, 0, 0, 0, 0, 0, 0, 0, 0, 0, 0, 0, 0, 0, 0, 0, 0, 0, 0, 0],[],[],[0, 0, 0, 0, 0, 0, 0, 0, 0, 0, 0, 0, 0, 8, 8, 0, 6, 0, 0, 0, 0, 6, 0, 0, 0, 8, 0, 0, 6, 0, 8, 0, 6, 0, 0, 0, 6, 0, 0, 0, 8, 0, 0, 0, 8, 0, 0, 8, 0, 0],[],[],[],[2, 2, 0, 5, 5, 0, 0, 0, 0, 0, 2, 0, 0, 0, 0, 0, 0, 0, 0, 0, 0, 0, 0, 0, 0, 0, 0, 2, 0, 0, 0, 0, 0, 5, 0, 0, 0, 5, 0, 2, 0, 0, 0, 0, 0, 2, 0, 0, 2, 0][23, 29, 43, 6, 5, 2, 17, 20, 42],[48, 0, 45, 10, 1, 39, 27],[12, 41, 46, 15],[],[33, 37, 4, 3],[32, 36, 16, 28, 21],[11, 7, 24],[44, 30, 14, 47, 40, 13, 25],[38, 26, 31, 35],[9, 49, 8, 19, 34, 18, 22]
00000000000000000000000000000000000000000000000000,00000000000010000000000000100001000100000100000000,00000001000100000000000010000000000000000000000000,00000000100000000110100000000000001000000000000001,00000000000000000000000000000000000000000000000000,00000000000001101000010001001010100010000000100100,00100110010000010001001100000100000000101011001000,00000000000000000000000000000000000000000000000000,00000000000000000000000000000000000000000000000000,11011000001000000000000000010000010001010000010010,[],[0, 0, 0, 0, 0, 0, 0, 0, 0, 0, 0, 0, 5, 0, 0, 0, 0, 0, 0, 0, 0, 0, 0, 0, 0, 0, 5, 0, 0, 0, 0, 5, 0, 0, 0, 5, 0, 0, 0, 0, 0, 5, 0, 0, 0, 0, 0, 0, 0, 0],[0, 0, 0, 0, 0, 0, 0, 4, 0, 0, 0, 4, 0, 0, 0, 0, 0, 0, 0, 0, 0, 0, 0, 0, 4, 0, 0, 0, 0, 0, 0, 0, 0, 0, 0, 0, 0, 0, 0, 0, 0, 0, 0, 0, 0, 0, 0, 0, 0, 0],[0, 0, 0, 0, 0, 0, 0, 0, 6, 0, 0, 0, 0, 0, 0, 0, 0, 7, 7, 0, 7, 0, 0, 0, 0, 0, 0, 0, 0, 0, 0, 0, 0, 0, 7, 0, 0, 0, 0, 0, 0, 0, 0, 0, 0, 0, 0, 0, 0, 6],[],[0, 0, 0, 0, 0, 0, 0, 0, 0, 0, 0, 0, 0, 8, 9, 0, 9, 0, 0, 0, 0, 8, 0, 0, 0, 9, 0, 0, 9, 0, 9, 0, 9, 0, 0, 0, 8, 0, 0, 0, 0, 0, 0, 0, 8, 0, 0, 8, 0, 0],[0, 0, 1, 0, 0, 10, 10, 0, 0, 1, 0, 0, 0, 0, 0, 1, 0, 0, 0, 1, 0, 0, 10, 1, 0, 0, 0, 0, 0, 1, 0, 0, 0, 0, 0, 0, 0, 0, 10, 0, 10, 0, 1, 1, 0, 0, 10, 0, 0, 0],[],[],[2, 2, 0, 2, 2, 0, 0, 0, 0, 0, 3, 0, 0, 0, 0, 0, 0, 0, 0, 0, 0, 0, 0, 0, 0, 0, 0, 2, 0, 0, 0, 0, 0, 3, 0, 0, 0, 2, 0, 2, 0, 0, 0, 0, 0, 3, 0, 0, 3, 0][29, 43, 9, 15, 19, 2, 42, 23],[4, 3, 39, 1, 27, 37, 0],[10, 48, 33, 45],[11, 24, 7],[35, 26, 31, 41, 12],[49, 8],[20, 17, 18, 34],[13, 36, 47, 44, 21],[16, 32, 25, 14, 28, 30],[38, 40, 5, 46, 6, 22]
00000000000000000000000000000000000000000000000000,00000000000000000000000000000000000000000000000000,00000001000100000000000010000000000000000000000000,00000000100000000110100000000000001000000000000001,00000000000000000000000000000000000000000000000000,00000000000010101000010000101011100100000100100000,00100110000000010001001000000100000000100011001000,00001000011000000000000100000000000000000000000000,00000000000001000000000001000000000010001000000100,11010000000000000000000000010000010001010000010010,[],[],[0, 0, 0, 0, 0, 0, 0, 7, 0, 0, 0, 7, 0, 0, 0, 0, 0, 0, 0, 0, 0, 0, 0, 0, 7, 0, 0, 0, 0, 0, 0, 0, 0, 0, 0, 0, 0, 0, 0, 0, 0, 0, 0, 0, 0, 0, 0, 0, 0, 0],[0, 0, 0, 0, 0, 0, 0, 0, 2, 0, 0, 0, 0, 0, 0, 0, 0, 2, 2, 0, 2, 0, 0, 0, 0, 0, 0, 0, 0, 0, 0, 0, 0, 0, 2, 0, 0, 0, 0, 0, 0, 0, 0, 0, 0, 0, 0, 0, 0, 2],[],[0, 0, 0, 0, 0, 0, 0, 0, 0, 0, 0, 0, 10, 0, 10, 0, 10, 0, 0, 0, 0, 1, 0, 0, 0, 0, 10, 0, 1, 0, 1, 1, 1, 0, 0, 1, 0, 0, 0, 0, 0, 10, 0, 0, 10, 0, 0, 0, 0, 0],[0, 0, 9, 0, 0, 8, 8, 0, 0, 0, 0, 0, 0, 0, 0, 9, 0, 0, 0, 9, 0, 0, 8, 0, 0, 0, 0, 0, 0, 8, 0, 0, 0, 0, 0, 0, 0, 0, 8, 0, 0, 0, 8, 8, 0, 0, 9, 0, 0, 0],[0, 0, 0, 0, 5, 0, 0, 0, 0, 5, 5, 0, 0, 0, 0, 0, 0, 0, 0, 0, 0, 0, 0, 5, 0, 0, 0, 0, 0, 0, 0, 0, 0, 0, 0, 0, 0, 0, 0, 0, 0, 0, 0, 0, 0, 0, 0, 0, 0, 0],[0, 0, 0, 0, 0, 0, 0, 0, 0, 0, 0, 0, 0, 6, 0, 0, 0, 0, 0, 0, 0, 0, 0, 0, 0, 6, 0, 0, 0, 0, 0, 0, 0, 0, 0, 0, 6, 0, 0, 0, 6, 0, 0, 0, 0, 0, 0, 6, 0, 0],[3, 3, 0, 3, 0, 0, 0, 0, 0, 0, 0, 0, 0, 0, 0, 0, 0, 0, 0, 0, 0, 0, 0, 0, 0, 0, 0, 3, 0, 0, 0, 0, 0, 3, 0, 0, 0, 3, 0, 3, 0, 0, 0, 0, 0, 3, 0, 0, 3, 0][21, 35, 28, 30, 32, 31],[17, 34, 20, 18, 8, 49],[3, 27, 39, 48, 45, 0, 1, 33, 37],[],[23, 9, 4, 10],[13, 47, 40, 36, 25],[24, 7, 11],[6, 29, 38, 22, 43, 5, 42],[15, 19, 46, 2],[16, 12, 26, 41, 14, 44]
